n=30;
demand=2;
horizon=30;
est=[0,25,19,26,8,8,11,29,22,21,15,25,16,12,21,0,12,0,0,5,16,11,29,29,24,4,16,28,22,20];
processing_time=[23,2,2,2,5,6,9,1,6,2,15,3,12,15,8,27,1,10,24,3,13,4,1,1,6,4,7,1,6,10];
lct=[29,29,30,30,29,22,27,30,29,28,30,30,28,29,29,27,28,24,28,28,30,20,30,30,30,26,30,29,28,30];
